c t pmc
c file mc2022_track3_067.cnf
p cnf 160 919
c p show 1 3 6 10 12 13 16 18 20 23 26 30 31 32 33 35 38 39 40 41 42 43 44 45 47 48 49 51 56 58 62 65 71 73 74 75 77 79 84 85 86 88 89 91 92 94 96 98 103 104 106 107 109 111 116 117 120 121 122 123 125 126 130 131 132 138 139 140 141 142 144 150 151 154 155 156 160 0
9 10 0
17 18 19 0
26 27 28 0
34 35 36 37 0
43 44 45 42 46 0
49 50 53 55 54 51 52 0
57 58 64 60 63 62 61 59 0
66 67 69 65 72 68 71 70 0
75 76 77 80 74 73 78 79 0
83 85 87 82 84 86 88 0
90 93 96 92 91 94 95 0
99 103 104 98 100 101 102 0
109 110 111 107 106 108 112 0
115 116 119 114 120 118 117 0
126 127 128 125 122 123 124 0
131 135 136 130 132 134 133 0
138 142 143 140 139 144 141 0
149 150 152 146 148 147 151 0
154 158 160 155 159 157 156 0
-26 -2 0
-27 -3 0
-28 -4 0
-29 -5 0
-30 -6 0
-31 -7 0
-32 -8 0
-66 -90 0
-67 -91 0
-68 -92 0
-69 -93 0
-70 -94 0
-71 -95 0
-72 -96 0
-34 -90 0
-35 -91 0
-36 -92 0
-37 -93 0
-38 -94 0
-39 -95 0
-40 -96 0
-114 -74 0
-115 -75 0
-116 -76 0
-117 -77 0
-118 -78 0
-119 -79 0
-120 -80 0
-114 -90 0
-115 -91 0
-116 -92 0
-117 -93 0
-118 -94 0
-119 -95 0
-120 -96 0
-154 -10 0
-155 -11 0
-156 -12 0
-157 -13 0
-158 -14 0
-159 -15 0
-160 -16 0
-90 -58 0
-91 -59 0
-92 -60 0
-93 -61 0
-94 -62 0
-95 -63 0
-96 -64 0
-98 -106 0
-99 -107 0
-100 -108 0
-101 -109 0
-102 -110 0
-103 -111 0
-104 -112 0
-146 -18 0
-147 -19 0
-148 -20 0
-149 -21 0
-150 -22 0
-151 -23 0
-152 -24 0
-122 -26 0
-123 -27 0
-124 -28 0
-125 -29 0
-126 -30 0
-127 -31 0
-128 -32 0
-34 -2 0
-35 -3 0
-36 -4 0
-37 -5 0
-38 -6 0
-39 -7 0
-40 -8 0
-98 -66 0
-99 -67 0
-100 -68 0
-101 -69 0
-102 -70 0
-103 -71 0
-104 -72 0
-130 -42 0
-131 -43 0
-132 -44 0
-133 -45 0
-134 -46 0
-135 -47 0
-136 -48 0
-98 -34 0
-99 -35 0
-100 -36 0
-101 -37 0
-102 -38 0
-103 -39 0
-104 -40 0
-10 -106 0
-11 -107 0
-12 -108 0
-13 -109 0
-14 -110 0
-15 -111 0
-16 -112 0
-154 -2 0
-155 -3 0
-156 -4 0
-157 -5 0
-158 -6 0
-159 -7 0
-160 -8 0
-50 -90 0
-51 -91 0
-52 -92 0
-53 -93 0
-54 -94 0
-55 -95 0
-56 -96 0
-114 -58 0
-115 -59 0
-116 -60 0
-117 -61 0
-118 -62 0
-119 -63 0
-120 -64 0
-98 -114 0
-99 -115 0
-100 -116 0
-101 -117 0
-102 -118 0
-103 -119 0
-104 -120 0
-154 -138 0
-155 -139 0
-156 -140 0
-157 -141 0
-158 -142 0
-159 -143 0
-160 -144 0
-122 -18 0
-123 -19 0
-124 -20 0
-125 -21 0
-126 -22 0
-127 -23 0
-128 -24 0
-146 -66 0
-147 -67 0
-148 -68 0
-149 -69 0
-150 -70 0
-151 -71 0
-152 -72 0
-34 -146 0
-35 -147 0
-36 -148 0
-37 -149 0
-38 -150 0
-39 -151 0
-40 -152 0
-82 -26 0
-83 -27 0
-84 -28 0
-85 -29 0
-86 -30 0
-87 -31 0
-88 -32 0
-138 -2 0
-139 -3 0
-140 -4 0
-141 -5 0
-142 -6 0
-143 -7 0
-144 -8 0
-122 -42 0
-123 -43 0
-124 -44 0
-125 -45 0
-126 -46 0
-127 -47 0
-128 -48 0
-34 -138 0
-35 -139 0
-36 -140 0
-37 -141 0
-38 -142 0
-39 -143 0
-40 -144 0
-82 -106 0
-83 -107 0
-84 -108 0
-85 -109 0
-86 -110 0
-87 -111 0
-88 -112 0
-130 -10 0
-131 -11 0
-132 -12 0
-133 -13 0
-134 -14 0
-135 -15 0
-136 -16 0
-130 -50 0
-131 -51 0
-132 -52 0
-133 -53 0
-134 -54 0
-135 -55 0
-136 -56 0
-154 -130 0
-155 -131 0
-156 -132 0
-157 -133 0
-158 -134 0
-159 -135 0
-160 -136 0
-138 -58 0
-139 -59 0
-140 -60 0
-141 -61 0
-142 -62 0
-143 -63 0
-144 -64 0
-98 -18 0
-99 -19 0
-100 -20 0
-101 -21 0
-102 -22 0
-103 -23 0
-104 -24 0
-122 -66 0
-123 -67 0
-124 -68 0
-125 -69 0
-126 -70 0
-127 -71 0
-128 -72 0
-106 -26 0
-107 -27 0
-108 -28 0
-109 -29 0
-110 -30 0
-111 -31 0
-112 -32 0
-82 -74 0
-83 -75 0
-84 -76 0
-85 -77 0
-86 -78 0
-87 -79 0
-88 -80 0
-82 -2 0
-83 -3 0
-84 -4 0
-85 -5 0
-86 -6 0
-87 -7 0
-88 -8 0
-82 -42 0
-83 -43 0
-84 -44 0
-85 -45 0
-86 -46 0
-87 -47 0
-88 -48 0
-10 -122 0
-11 -123 0
-12 -124 0
-13 -125 0
-14 -126 0
-15 -127 0
-16 -128 0
-18 -26 0
-19 -27 0
-20 -28 0
-21 -29 0
-22 -30 0
-23 -31 0
-24 -32 0
-154 -26 0
-155 -27 0
-156 -28 0
-157 -29 0
-158 -30 0
-159 -31 0
-160 -32 0
-130 -66 0
-131 -67 0
-132 -68 0
-133 -69 0
-134 -70 0
-135 -71 0
-136 -72 0
-138 -74 0
-139 -75 0
-140 -76 0
-141 -77 0
-142 -78 0
-143 -79 0
-144 -80 0
-10 -146 0
-11 -147 0
-12 -148 0
-13 -149 0
-14 -150 0
-15 -151 0
-16 -152 0
-82 -58 0
-83 -59 0
-84 -60 0
-85 -61 0
-86 -62 0
-87 -63 0
-88 -64 0
-146 -50 0
-147 -51 0
-148 -52 0
-149 -53 0
-150 -54 0
-151 -55 0
-152 -56 0
-154 -18 0
-155 -19 0
-156 -20 0
-157 -21 0
-158 -22 0
-159 -23 0
-160 -24 0
-114 -26 0
-115 -27 0
-116 -28 0
-117 -29 0
-118 -30 0
-119 -31 0
-120 -32 0
-154 -74 0
-155 -75 0
-156 -76 0
-157 -77 0
-158 -78 0
-159 -79 0
-160 -80 0
-2 -42 0
-3 -43 0
-4 -44 0
-5 -45 0
-6 -46 0
-7 -47 0
-8 -48 0
-66 -106 0
-67 -107 0
-68 -108 0
-69 -109 0
-70 -110 0
-71 -111 0
-72 -112 0
-34 -106 0
-35 -107 0
-36 -108 0
-37 -109 0
-38 -110 0
-39 -111 0
-40 -112 0
-98 -10 0
-99 -11 0
-100 -12 0
-101 -13 0
-102 -14 0
-103 -15 0
-104 -16 0
-98 -50 0
-99 -51 0
-100 -52 0
-101 -53 0
-102 -54 0
-103 -55 0
-104 -56 0
-106 -58 0
-107 -59 0
-108 -60 0
-109 -61 0
-110 -62 0
-111 -63 0
-112 -64 0
-98 -122 0
-99 -123 0
-100 -124 0
-101 -125 0
-102 -126 0
-103 -127 0
-104 -128 0
-138 -146 0
-139 -147 0
-140 -148 0
-141 -149 0
-142 -150 0
-143 -151 0
-144 -152 0
-130 -18 0
-131 -19 0
-132 -20 0
-133 -21 0
-134 -22 0
-135 -23 0
-136 -24 0
-154 -66 0
-155 -67 0
-156 -68 0
-157 -69 0
-158 -70 0
-159 -71 0
-160 -72 0
-154 -34 0
-155 -35 0
-156 -36 0
-157 -37 0
-158 -38 0
-159 -39 0
-160 -40 0
-138 -26 0
-139 -27 0
-140 -28 0
-141 -29 0
-142 -30 0
-143 -31 0
-144 -32 0
-114 -2 0
-115 -3 0
-116 -4 0
-117 -5 0
-118 -6 0
-119 -7 0
-120 -8 0
-114 -42 0
-115 -43 0
-116 -44 0
-117 -45 0
-118 -46 0
-119 -47 0
-120 -48 0
-34 -114 0
-35 -115 0
-36 -116 0
-37 -117 0
-38 -118 0
-39 -119 0
-40 -120 0
-82 -114 0
-83 -115 0
-84 -116 0
-85 -117 0
-86 -118 0
-87 -119 0
-88 -120 0
-10 -90 0
-11 -91 0
-12 -92 0
-13 -93 0
-14 -94 0
-15 -95 0
-16 -96 0
-138 -50 0
-139 -51 0
-140 -52 0
-141 -53 0
-142 -54 0
-143 -55 0
-144 -56 0
-154 -42 0
-155 -43 0
-156 -44 0
-157 -45 0
-158 -46 0
-159 -47 0
-160 -48 0
-130 -58 0
-131 -59 0
-132 -60 0
-133 -61 0
-134 -62 0
-135 -63 0
-136 -64 0
-18 -106 0
-19 -107 0
-20 -108 0
-21 -109 0
-22 -110 0
-23 -111 0
-24 -112 0
-98 -26 0
-99 -27 0
-100 -28 0
-101 -29 0
-102 -30 0
-103 -31 0
-104 -32 0
-10 -42 0
-11 -43 0
-12 -44 0
-13 -45 0
-14 -46 0
-15 -47 0
-16 -48 0
-90 -2 0
-91 -3 0
-92 -4 0
-93 -5 0
-94 -6 0
-95 -7 0
-96 -8 0
-74 -106 0
-75 -107 0
-76 -108 0
-77 -109 0
-78 -110 0
-79 -111 0
-80 -112 0
-106 -42 0
-107 -43 0
-108 -44 0
-109 -45 0
-110 -46 0
-111 -47 0
-112 -48 0
-10 -114 0
-11 -115 0
-12 -116 0
-13 -117 0
-14 -118 0
-15 -119 0
-16 -120 0
-114 -50 0
-115 -51 0
-116 -52 0
-117 -53 0
-118 -54 0
-119 -55 0
-120 -56 0
-154 -58 0
-155 -59 0
-156 -60 0
-157 -61 0
-158 -62 0
-159 -63 0
-160 -64 0
-34 -18 0
-35 -19 0
-36 -20 0
-37 -21 0
-38 -22 0
-39 -23 0
-40 -24 0
-146 -26 0
-147 -27 0
-148 -28 0
-149 -29 0
-150 -30 0
-151 -31 0
-152 -32 0
-82 -18 0
-83 -19 0
-84 -20 0
-85 -21 0
-86 -22 0
-87 -23 0
-88 -24 0
-138 -66 0
-139 -67 0
-140 -68 0
-141 -69 0
-142 -70 0
-143 -71 0
-144 -72 0
-130 -74 0
-131 -75 0
-132 -76 0
-133 -77 0
-134 -78 0
-135 -79 0
-136 -80 0
-98 -2 0
-99 -3 0
-100 -4 0
-101 -5 0
-102 -6 0
-103 -7 0
-104 -8 0
-49 -65 0
-50 -66 0
-51 -67 0
-52 -68 0
-53 -69 0
-54 -70 0
-55 -71 0
-56 -72 0
-73 -57 0
-74 -58 0
-75 -59 0
-76 -60 0
-77 -61 0
-78 -62 0
-79 -63 0
-80 -64 0
-154 -50 0
-155 -51 0
-156 -52 0
-157 -53 0
-158 -54 0
-159 -55 0
-160 -56 0
-146 -74 0
-147 -75 0
-148 -76 0
-149 -77 0
-150 -78 0
-151 -79 0
-152 -80 0
-82 -66 0
-83 -67 0
-84 -68 0
-85 -69 0
-86 -70 0
-87 -71 0
-88 -72 0
-82 -34 0
-83 -35 0
-84 -36 0
-85 -37 0
-86 -38 0
-87 -39 0
-88 -40 0
-122 -74 0
-123 -75 0
-124 -76 0
-125 -77 0
-126 -78 0
-127 -79 0
-128 -80 0
-106 -50 0
-107 -51 0
-108 -52 0
-109 -53 0
-110 -54 0
-111 -55 0
-112 -56 0
-122 -90 0
-123 -91 0
-124 -92 0
-125 -93 0
-126 -94 0
-127 -95 0
-128 -96 0
-98 -58 0
-99 -59 0
-100 -60 0
-101 -61 0
-102 -62 0
-103 -63 0
-104 -64 0
-138 -18 0
-139 -19 0
-140 -20 0
-141 -21 0
-142 -22 0
-143 -23 0
-144 -24 0
-130 -26 0
-131 -27 0
-132 -28 0
-133 -29 0
-134 -30 0
-135 -31 0
-136 -32 0
-122 -2 0
-123 -3 0
-124 -4 0
-125 -5 0
-126 -6 0
-127 -7 0
-128 -8 0
-138 -42 0
-139 -43 0
-140 -44 0
-141 -45 0
-142 -46 0
-143 -47 0
-144 -48 0
-34 -122 0
-35 -123 0
-36 -124 0
-37 -125 0
-38 -126 0
-39 -127 0
-40 -128 0
-82 -10 0
-83 -11 0
-84 -12 0
-85 -13 0
-86 -14 0
-87 -15 0
-88 -16 0
-82 -122 0
-83 -123 0
-84 -124 0
-85 -125 0
-86 -126 0
-87 -127 0
-88 -128 0
-146 -2 0
-147 -3 0
-148 -4 0
-149 -5 0
-150 -6 0
-151 -7 0
-152 -8 0
-82 -50 0
-83 -51 0
-84 -52 0
-85 -53 0
-86 -54 0
-87 -55 0
-88 -56 0
-146 -42 0
-147 -43 0
-148 -44 0
-149 -45 0
-150 -46 0
-151 -47 0
-152 -48 0
-122 -58 0
-123 -59 0
-124 -60 0
-125 -61 0
-126 -62 0
-127 -63 0
-128 -64 0
-18 -114 0
-19 -115 0
-20 -116 0
-21 -117 0
-22 -118 0
-23 -119 0
-24 -120 0
-26 -90 0
-27 -91 0
-28 -92 0
-29 -93 0
-30 -94 0
-31 -95 0
-32 -96 0
-34 -10 0
-35 -11 0
-36 -12 0
-37 -13 0
-38 -14 0
-39 -15 0
-40 -16 0
-98 -74 0
-99 -75 0
-100 -76 0
-101 -77 0
-102 -78 0
-103 -79 0
-104 -80 0
-130 -2 0
-131 -3 0
-132 -4 0
-133 -5 0
-134 -6 0
-135 -7 0
-136 -8 0
-98 -42 0
-99 -43 0
-100 -44 0
-101 -45 0
-102 -46 0
-103 -47 0
-104 -48 0
-34 -130 0
-35 -131 0
-36 -132 0
-37 -133 0
-38 -134 0
-39 -135 0
-40 -136 0
-138 -10 0
-139 -11 0
-140 -12 0
-141 -13 0
-142 -14 0
-143 -15 0
-144 -16 0
-122 -50 0
-123 -51 0
-124 -52 0
-125 -53 0
-126 -54 0
-127 -55 0
-128 -56 0
-106 -90 0
-107 -91 0
-108 -92 0
-109 -93 0
-110 -94 0
-111 -95 0
-112 -96 0
-146 -130 0
-147 -131 0
-148 -132 0
-149 -133 0
-150 -134 0
-151 -135 0
-152 -136 0
-146 -58 0
-147 -59 0
-148 -60 0
-149 -61 0
-150 -62 0
-151 -63 0
-152 -64 0
-18 -42 0
-19 -43 0
-20 -44 0
-21 -45 0
-22 -46 0
-23 -47 0
-24 -48 0
-18 -90 0
-19 -91 0
-20 -92 0
-21 -93 0
-22 -94 0
-23 -95 0
-24 -96 0
-66 -114 0
-67 -115 0
-68 -116 0
-69 -117 0
-70 -118 0
-71 -119 0
-72 -120 0
-26 -10 0
-27 -11 0
-28 -12 0
-29 -13 0
-30 -14 0
-31 -15 0
-32 -16 0
-74 -90 0
-75 -91 0
-76 -92 0
-77 -93 0
-78 -94 0
-79 -95 0
-80 -96 0
-2 -106 0
-3 -107 0
-4 -108 0
-5 -109 0
-6 -110 0
-7 -111 0
-8 -112 0
-49 -73 0
-50 -74 0
-51 -75 0
-52 -76 0
-53 -77 0
-54 -78 0
-55 -79 0
-56 -80 0
-42 -90 0
-43 -91 0
-44 -92 0
-45 -93 0
-46 -94 0
-47 -95 0
-48 -96 0
-65 -57 0
-58 -66 0
-59 -67 0
-60 -68 0
-61 -69 0
-62 -70 0
-63 -71 0
-64 -72 0
1 0
-25 0
-33 0
-153 0
-137 0
-81 0
-41 0
-113 0
-89 0
-97 0
-121 0
-145 0
-129 0
-105 0
